Using license file /home/anup/gurobi.lic
Academic license - for non-commercial use only
Changed value of parameter NonConvex to 2
   Prev: -1  Min: -1  Max: 2  Default: -1
Parameter NonConvex unchanged
   Value: 2  Min: -1  Max: 2  Default: -1
Model update took: 4.76837158203125e-05 seconds
Warning: constraint name "accuracy_(0, sk_0)[0]" has a space
Gurobi Optimizer version 9.0.0 build v9.0.0rc2 (linux64)
Optimize a model with 100 rows, 112 columns and 275 nonzeros
Model fingerprint: 0xb2d510cc
Model has 6 quadratic constraints
Model has 5 general constraints
Variable types: 108 continuous, 4 integer (0 binary)
Coefficient statistics:
  Matrix range     [1e-04, 8e+03]
  QMatrix range    [1e+00, 1e+00]
  QLMatrix range   [1e+00, 1e+00]
  Objective range  [1e+00, 1e+00]
  Bounds range     [1e+00, 3e+04]
  RHS range        [5e-01, 5e+01]

---------------------------------------------------------------------------
Multi-objectives: starting optimization with 2 objectives ... 
---------------------------------------------------------------------------

Multi-objectives: applying initial presolve ...
---------------------------------------------------------------------------

Presolve added 0 rows and 12 columns
Presolve removed 21 rows and 0 columns
Presolve time: 0.00s
Presolved: 103 rows and 125 columns
---------------------------------------------------------------------------

Multi-objectives: optimize objective 1 (ns) ...
---------------------------------------------------------------------------

Presolve removed 53 rows and 64 columns
Presolve time: 0.00s
Presolved: 74 rows, 62 columns, 210 nonzeros
Presolved model has 6 SOS constraint(s)
Presolved model has 6 bilinear constraint(s)
Variable types: 42 continuous, 20 integer (16 binary)

Root relaxation: objective 1.020408e+01, 27 iterations, 0.00 seconds

    Nodes    |    Current Node    |     Objective Bounds      |     Work
 Expl Unexpl |  Obj  Depth IntInf | Incumbent    BestBd   Gap | It/Node Time

     0     0   10.20408    0    8          -   10.20408      -     -    0s
     0     0   10.20408    0    8          -   10.20408      -     -    0s
     0     0   10.20408    0    8          -   10.20408      -     -    0s
     0     0   10.20408    0    9          -   10.20408      -     -    0s
     0     0   10.20408    0    9          -   10.20408      -     -    0s
     0     0   10.20408    0    9          -   10.20408      -     -    0s
H    0     0                      28.5714286   10.20408  64.3%     -    0s
H    0     0                      17.8571429   10.20408  42.9%     -    0s
     0     2   10.20932    0   13   17.85714   10.20932  42.8%     -    0s
*   53    42              10      15.6090907   10.71429  31.4%   5.1    0s
*   65    42              12      15.2752848   10.71429  29.9%   4.3    0s
*   70    40              12      14.2857143   10.71429  25.0%   4.2    0s
*  116    45              19      13.6311999   10.71429  21.4%   3.4    0s
*  136    60              18      12.1553091   10.71429  11.9%   3.1    0s
*  242    24              20      11.7159647   11.42857  2.45%   2.5    0s
*  247    24              21      11.6917048   11.42857  2.25%   2.6    0s
*  250    24              23      11.6858069   11.42857  2.20%   2.5    0s
*  253    24              25      11.6856138   11.42857  2.20%   2.5    0s
*  294     0              25      11.6856084   11.68561  0.00%   2.3    0s

Cutting planes:
  Gomory: 1
  Implied bound: 1
  MIR: 1
  Flow cover: 2
  RLT: 5
  Relax-and-lift: 1

Explored 300 nodes (737 simplex iterations) in 0.04 seconds
Thread count was 8 (of 8 available processors)

Solution count 10: 11.6856 11.6858 11.6917 ... 17.8571

Optimal solution found (tolerance 1.00e-04)
Best objective 1.168560838376e+01, best bound 1.168560838376e+01, gap 0.0000%
---------------------------------------------------------------------------

Multi-objectives: optimize objective 2 (res) ...
---------------------------------------------------------------------------


Loaded user MIP start with objective 165.847

Presolve removed 52 rows and 64 columns
Presolve time: 0.00s
Presolved: 76 rows, 61 columns, 237 nonzeros
Presolved model has 6 bilinear constraint(s)
Found heuristic solution: objective 148.3521260
Variable types: 44 continuous, 17 integer (13 binary)

Root relaxation: objective 1.139221e+02, 37 iterations, 0.00 seconds

    Nodes    |    Current Node    |     Objective Bounds      |     Work
 Expl Unexpl |  Obj  Depth IntInf | Incumbent    BestBd   Gap | It/Node Time

     0     0  113.92215    0   10  148.35213  113.92215  23.2%     -    0s
     0     0  116.75095    0    6  148.35213  116.75095  21.3%     -    0s
     0     0  116.76753    0    6  148.35213  116.76753  21.3%     -    0s
     0     0  126.25523    0    7  148.35213  126.25523  14.9%     -    0s
     0     0  126.25523    0    5  148.35213  126.25523  14.9%     -    0s
     0     0  134.71024    0    6  148.35213  134.71024  9.20%     -    0s
     0     0  134.71024    0    6  148.35213  134.71024  9.20%     -    0s
     0     0  134.71205    0    4  148.35213  134.71205  9.19%     -    0s
     0     0  134.71471    0    4  148.35213  134.71471  9.19%     -    0s
     0     0  134.71505    0    4  148.35213  134.71505  9.19%     -    0s
     0     0  134.71505    0    4  148.35213  134.71505  9.19%     -    0s
     0     0  134.71505    0    3  148.35213  134.71505  9.19%     -    0s
     0     0  134.79903    0    4  148.35213  134.79903  9.14%     -    0s
     0     0  134.80180    0    4  148.35213  134.80180  9.13%     -    0s
     0     0  134.80180    0    4  148.35213  134.80180  9.13%     -    0s
     0     2  134.80180    0    4  148.35213  134.80180  9.13%     -    0s
*   15     6               7     145.3057160  145.29715  0.01%   1.7    0s

Cutting planes:
  MIR: 1
  StrongCG: 1
  RLT: 6

Explored 19 nodes (187 simplex iterations) in 0.07 seconds
Thread count was 8 (of 8 available processors)

Solution count 3: 145.306 148.352 165.847 

Optimal solution found (tolerance 1.00e-04)
Best objective 1.453057160267e+02, best bound 1.453044650117e+02, gap 0.0009%

---------------------------------------------------------------------------
Multi-objectives: solved in 0.07 seconds, solution count 10

Model optimize took: 0.07143807411193848 seconds

Solution quality statistics for model netmon :
  Maximum violation:
    Bound       : 0.00000000e+00
    Constraint  : 1.81898940e-12 (mem_tot_cpu_2)
    Integrality : 4.44089210e-16 (cores_sketch_cpu_2)


DEBUG -----------------------

Objective: 12.271115791827738
frac[0,0] 0
frac[0,1] 0
frac[0,2] 0
frac[0,3] 0.489493
frac[0,4] 0.489493
frac[0,5] 0.489493
frac[0,6] 0.0289979
frac[0,7] 0.0289979
frac[0,8] 0.0289979
frac[0,9] 0.0289979
frac[1,0] 0
frac[1,1] 0
frac[1,2] 0
frac[1,3] 0.510507
frac[1,4] 0.510507
frac[1,5] 0.510507
frac[1,6] 0.000828776
frac[1,7] 0.000828776
frac[1,8] 0.000828776
frac[1,9] 0.000828776
frac[2,0] 1
frac[2,1] 1
frac[2,2] 1
frac[2,3] 0
frac[2,4] 0
frac[2,5] 0
frac[2,6] 0.970173
frac[2,7] 0.970173
frac[2,8] 0.970173
frac[2,9] 0.970173
frac[3,0] 0
frac[3,1] 0
frac[3,2] 0
frac[3,3] 0
frac[3,4] 0
frac[3,5] 0
frac[3,6] 0.470173
frac[3,7] 0.470173
frac[3,8] 0.470173
frac[3,9] 0.470173
mem[0,0] 0
mem[0,1] 0
mem[0,2] 0
mem[0,3] 4158.06
mem[0,4] 4158.06
mem[0,5] 4158.06
mem[0,6] 0.000566365
mem[0,7] 0.000566365
mem[0,8] 0.000566365
mem[0,9] 0.000566365
mem[1,0] 1.81899e-12
mem[1,1] 0
mem[1,2] 0
mem[1,3] 4336.57
mem[1,4] 4336.57
mem[1,5] 4336.57
mem[1,6] 1.6187e-05
mem[1,7] 1.6187e-05
mem[1,8] 1.6187e-05
mem[1,9] 1.6187e-05
mem[2,0] 0.0351562
mem[2,1] 0.0351562
mem[2,2] 0.0351562
mem[2,3] 0
mem[2,4] 0
mem[2,5] 0
mem[2,6] 0.0189487
mem[2,7] 0.0189487
mem[2,8] 0.0189487
mem[2,9] 0.0189487
mem[3,0] 0
mem[3,1] 0
mem[3,2] 0
mem[3,3] 0
mem[3,4] 0
mem[3,5] 0
mem[3,6] 0.00918307
mem[3,7] 0.00918307
mem[3,8] 0.00918307
mem[3,9] 0.00918307
rows_tot_cpu_1 1.58447
mem_tot_cpu_1 12474.2
m_access_time_cpu_1 11.9892
ns_single_cpu_1 24.5422
pdt_m_rows_cpu_1 18.9966
cores_sketch_cpu_1 2
cores_dpdk_cpu_1 5
ns_sketch_cpu_1 12.2711
ns_dpdk_cpu_1 11.4286
ns_cpu_1 12.2711
pdt_nsk_c_cpu_1 24.5422
pdt_nsc_dpdk_cpu_1 57.1429
rows_tot_cpu_2 1.53484
mem_tot_cpu_2 13009.7
m_access_time_cpu_2 12.482
ns_single_cpu_2 24.5422
pdt_m_rows_cpu_2 19.1578
cores_sketch_cpu_2 2
cores_dpdk_cpu_2 5
ns_sketch_cpu_2 12.2711
ns_dpdk_cpu_2 11.4286
ns_cpu_2 12.2711
pdt_nsk_c_cpu_2 24.5422
pdt_nsc_dpdk_cpu_2 57.1429
rows_tot_p4_1 6.88069
mem_tot_p4_1 0.181264
ns_p4_1 6.75676
rows_tot_p4_2 1.88069
mem_tot_p4_2 0.0367323
ns_p4_2 6.75676
ns 12.2711
res_overall 145.306
-----------------------------

Throughput: 81.49218188177929 Mpps, ns per packet: 12.271115791827738
Resources: 145.30571602671057

Sketch (0) (cm: eps0: 0.3125, del0: 0.05, min_mem: 0.03515625)
Row: 1
0.000    0.000    1.000    0.000    
Total frac: 1.000
Row: 2
0.000    0.000    1.000    0.000    
Total frac: 1.000
Row: 3
0.000    0.000    1.000    0.000    
Total frac: 1.000

Sketch (1) (cm: eps0: 1.25e-06, del0: 0.05, min_mem: 8494.6328125)
Row: 1
0.489    0.511    0.000    0.000    
Total frac: 1.000
Row: 2
0.489    0.511    0.000    0.000    
Total frac: 1.000
Row: 3
0.489    0.511    0.000    0.000    
Total frac: 1.000

Sketch (2) (cm: eps0: 0.625, del0: 0.025, min_mem: 0.01953125)
Row: 1
0.029    0.001    0.970    0.470    
Total frac: 1.470
Row: 2
0.029    0.001    0.970    0.470    
Total frac: 1.470
Row: 3
0.029    0.001    0.970    0.470    
Total frac: 1.470
Row: 4
0.029    0.001    0.970    0.470    
Total frac: 1.470
Device (0) cpu_1:
cores_sketch: 2.0, cores_dpdk: 5.0
Rows total: 1.584470849508692
Mem total: 12474.195460625811
Throughput: 81.49218188177929

Device (1) cpu_2:
cores_sketch: 2.0000000000000004, cores_dpdk: 5.0
Rows total: 1.5348357178198984
Mem total: 13009.705307080583
Throughput: 81.49218188177929

Device (2) p4_1:

Rows total: 6.88069343267141
Mem total: 0.18126354360686348
Throughput: 148.0

Device (3) p4_2:

Rows total: 1.8806934326714093
Mem total: 0.03673229360686346
Throughput: 148.0

